NAME : problems/30-tsp/instance-25.tsp
COMMENT : No Comment
TYPE : TSP
DIMENSION: 30
EDGE_WEIGHT_TYPE : EUC_2D
NODE_COORD_SECTION
1 8417 3765 
2 4861 4744 
3 3467 7030 
4 6476 5681 
5 159 6004 
6 7029 721 
7 4190 8070 
8 3809 57 
9 8251 3182 
10 7640 784 
11 4360 3047 
12 6444 1629 
13 3951 566 
14 9702 2994 
15 644 6277 
16 5124 9170 
17 2498 8181 
18 6652 8182 
19 1998 9869 
20 8225 6505 
21 1051 1823 
22 855 4184 
23 4869 3934 
24 3830 876 
25 8726 7758 
26 6143 1293 
27 5729 6483 
28 1102 5845 
29 238 3010 
30 758 448 
EOF
